SCIP Status        : solving was interrupted [time limit reached]
Total Time         :    3600.00
  solving          :    3600.00
  presolving       :       0.22 (included in solving)
  reading          :       0.00
  copying          :       0.53 (33 #copies) (minimal 0.00, maximal 0.03, average 0.02)
Original Problem   :
  Problem name     : bbbenchmark/g05_60.7.cut
  Variables        : 61 (60 binary, 0 integer, 0 implicit integer, 1 continuous)
  Constraints      : 1 initial, 1 maximal
  Objective        : minimize, 1 non-zeros (abs.min = 1, abs.max = 1)
Presolved Problem  :
  Problem name     : t_bbbenchmark/g05_60.7.cut
  Variables        : 946 (60 binary, 0 integer, 885 implicit integer, 1 continuous)
  Constraints      : 886 initial, 6647 maximal
  Objective        : minimize, 1 non-zeros (abs.min = 1, abs.max = 1)
  Nonzeros         : 3601 constraint, 122 clique table
Presolvers         :   ExecTime  SetupTime  Calls  FixedVars   AggrVars   ChgTypes  ChgBounds   AddHoles    DelCons    AddCons   ChgSides   ChgCoefs
  boundshift       :       0.00       0.00      0          0          0          0          0          0          0          0          0          0
  convertinttobin  :       0.00       0.00      0          0          0          0          0          0          0          0          0          0
  domcol           :       0.00       0.00      1          0          0          0          0          0          0          0          0          0
  dualagg          :       0.00       0.00      0          0          0          0          0          0          0          0          0          0
  dualcomp         :       0.00       0.00      1          0          0          0          0          0          0          0          0          0
  dualinfer        :       0.00       0.00      0          0          0          0          0          0          0          0          0          0
  dualsparsify     :       0.00       0.00      1          0          0          0          0          0          0          0          0          0
  gateextraction   :       0.00       0.00      0          0          0          0          0          0          0          0          0          0
  implics          :       0.00       0.00      2          0          0          0          0          0          0          0          0          0
  inttobinary      :       0.00       0.00      0          0          0          0          0          0          0          0          0          0
  qpkktref         :       0.00       0.00      0          0          0          0          0          0          0          0          0          0
  redvub           :       0.00       0.00      0          0          0          0          0          0          0          0          0          0
  sparsify         :       0.00       0.00      1          0          0          0          0          0          0          0          0          0
  stuffing         :       0.00       0.00      0          0          0          0          0          0          0          0          0          0
  trivial          :       0.00       0.00      4          0          0          0          0          0          0          0          0          0
  tworowbnd        :       0.00       0.00      0          0          0          0          0          0          0          0          0          0
  dualfix          :       0.00       0.00      4          0          0          0          0          0          0          0          0          0
  genvbounds       :       0.00       0.00      0          0          0          0          0          0          0          0          0          0
  probing          :       0.12       0.00      1          0          0          0          0          0          0          0          0          0
  pseudoobj        :       0.00       0.00      1          0          0          0          1          0          0          0          0          0
  symmetry         :       0.00       0.00      0          0          0          0          0          0          0          0          0          0
  vbounds          :       0.00       0.00      1          0          0          0          0          0          0          0          0          0
  and              :       0.01       0.00      2          0          0          0          0          0          0          0          0          0
  linear           :       0.00       0.00      2          0          0          0          0          0          0          0          0          0
  logicor          :       0.00       0.00      0          0          0          0          0          0          0          0          0          0
  nonlinear        :       0.08       0.01      5          0          0          0          1          0          0        885          0          0
  benders          :       0.00       0.00      0          0          0          0          0          0          0          0          0          0
  components       :       0.01       0.00      1          0          0          0          0          0          0          0          0          0
  root node        :          -          -      -          0          -          -         43          -          -          -          -          -
Constraints        :     Number  MaxNumber  #Separate #Propagate    #EnfoLP    #EnfoRelax  #EnfoPS    #Check   #ResProp    Cutoffs    DomReds       Cuts    Applied      Conss   Children
  benderslp        :          0          0          0          0      60430          0          0       4694          0          0          0          0          0          0          0
  integral         :          0          0          0          0      60430          0          0       4694          0          0       8896          0          0       2991     116784
  and              :        885        885      69593     404748          5          0          0         27      78821         28    2158381       4626       4164          0          0
  linear           :          1          1        138     404720          5          0          0         25          0          0          0          0          0          0          0
  logicor          :          0+      5761          0     119682          0          0          0          0        678        526        109          0          0          0          0
  benders          :          0          0          0          0          5          0          0         28          0          0          0          0          0          0          0
  countsols        :          0          0          0          0          5          0          0         28          0          0          0          0          0          0          0
  components       :          0          0          0          0          0          0          0          0          0          0          0          0          0          0          0
Constraint Timings :  TotalTime  SetupTime   Separate  Propagate     EnfoLP     EnfoPS     EnfoRelax   Check    ResProp    SB-Prop
  benderslp        :       0.10       0.00       0.00       0.00       0.10       0.00       0.00       0.00       0.00       0.00
  integral         :      60.08       0.00       0.00       0.00      60.06       0.00       0.00       0.02       0.00       0.00
  and              :      38.22       0.00      22.47      15.03       0.00       0.00       0.00       0.01       0.15       0.56
  linear           :       0.42       0.00       0.03       0.38       0.00       0.00       0.00       0.00       0.00       0.01
  logicor          :       8.62       0.00       0.00       8.59       0.00       0.00       0.00       0.00       0.00       0.03
  benders          :       0.00       0.00       0.00       0.00       0.00       0.00       0.00       0.00       0.00       0.00
  countsols        :       0.00       0.00       0.00       0.00       0.00       0.00       0.00       0.00       0.00       0.00
  components       :       0.14       0.00       0.00       0.14       0.00       0.00       0.00       0.00       0.00       0.00
Propagators        : #Propagate   #ResProp    Cutoffs    DomReds
  dualfix          :          4          0          0          0
  genvbounds       :          0          0          0          0
  nlobbt           :          0          0          0          0
  obbt             :          0          0          0          0
  probing          :          0          0          0          0
  pseudoobj        :     318821          0          0         45
  redcost          :     150865          0          0     366714
  rootredcost      :         12          0          0          0
  symmetry         :          0          0          0          0
  vbounds          :      30010          0          0          0
Propagator Timings :  TotalTime  SetupTime   Presolve  Propagate    ResProp    SB-Prop
  dualfix          :       0.00       0.00       0.00       0.00       0.00       0.00
  genvbounds       :       0.33       0.00       0.00       0.32       0.00       0.01
  nlobbt           :       0.00       0.00       0.00       0.00       0.00       0.00
  obbt             :       0.00       0.00       0.00       0.00       0.00       0.00
  probing          :       0.12       0.00       0.12       0.00       0.00       0.00
  pseudoobj        :       0.55       0.00       0.00       0.55       0.00       0.00
  redcost          :       5.20       0.00       0.00       5.19       0.00       0.01
  rootredcost      :       0.40       0.00       0.00       0.40       0.00       0.00
  symmetry         :       0.17       0.00       0.00       0.17       0.00       0.00
  vbounds          :       0.34       0.00       0.00       0.34       0.00       0.00
Conflict Analysis  :       Time      Calls    Success    DomReds  Conflicts   Literals    Reconvs ReconvLits   Dualrays   Nonzeros   LP Iters   (pool size: [10000,10000])
  propagation      :       0.00        554        343          -        395       26.6          0        0.0          -          -          -
  infeasible LP    :       0.00          0          0          -          0        0.0          0        0.0          0        0.0          0
  bound exceed. LP :      12.77       8167       6227          -      37758       31.9          2       23.0          0        0.0      45630
  strong branching :       0.00          0          0          -          0        0.0          0        0.0          -          -          0
  pseudo solution  :       0.00          0          0          -          0        0.0          0        0.0          -          -          -
  applied globally :       0.08          -          -          0      15279       31.9          -          -          0          -          -
  applied locally  :          -          -          -          0          0        0.0          -          -          0          -          -
Separators         :   ExecTime  SetupTime      Calls  RootCalls    Cutoffs    DomReds  FoundCuts ViaPoolAdd  DirectAdd    Applied ViaPoolApp  DirectApp      Conss
  cut pool         :       2.34          -      13903        171          -          -      20625     465508          -          -          -          -          -    (maximal pool size:       1267)
  aggregation      :     354.13       0.00       4791        138          0          0         12          9          0          9          9          0          0
  > cmir           :          -          -          -          -          -          -          -          9          0          9          9          0          -
  > flowcover      :          -          -          -          -          -          -          -          0          0          0          0          0          -
  > knapsackcover  :          -          -          -          -          -          -          -          0          0          0          0          0          -
  cgmip            :       0.00       0.00          0          0          0          0          0          0          0          0          0          0          0
  clique           :       0.00       0.00        138        138          0          0          0          0          0          0          0          0          0
  closecuts        :       0.00       0.00          0          0          0          0          0          0          0          0          0          0          0
  convexproj       :       0.00       0.00          0          0          0          0          0          0          0          0          0          0          0
  disjunctive      :       0.00       0.00          0          0          0          0          0          0          0          0          0          0          0
  eccuts           :       0.00       0.00          0          0          0          0          0          0          0          0          0          0          0
  gauge            :       0.00       0.00          0          0          0          0          0          0          0          0          0          0          0
  gomory           :       0.00       0.00          0          0          0          0          0          0          0          0          0          0          0
  > gomorymi       :          -          -          -          -          -          -          -          0          0          0          0          0          -
  > strongcg       :          -          -          -          -          -          -          -          0          0          0          0          0          -
  impliedbounds    :       0.13       0.00       4791        138          0          0         22          0          0          0          0          0          0
  interlattice     :       0.09       0.00         40         40          0          0         40          0         40         39          0         39          0
  interminor       :       0.00       0.00          0          0          0          0          0          0          0          0          0          0          0
  intersub         :       0.28       0.00         40         40          0          0         40          0         40         40          0         40          0
  intobj           :       0.00       0.00          0          0          0          0          0          0          0          0          0          0          0
  mcf              :       0.01       0.00          1          1          0          0          0          0          0          0          0          0          0
  minor            :       0.01       0.00          0          0          0          0          0          0          0          0          0          0          0
  mixing           :       0.02       0.00       4791        138          0          0          0          0          0          0          0          0          0
  oddcycle         :       0.00       0.00          0          0          0          0          0          0          0          0          0          0          0
  rapidlearning    :       0.01       0.00          0          0          0          0          0          0          0          0          0          0          0
  rlt              :       0.00       0.00         10         10          0          0          0          0          0          0          0          0          0
  zerohalf         :      26.75       0.00       3686         20          0          0      20591     465499          0      63739      63739          0          0
Cutselectors       :   ExecTime  SetupTime      Calls  RootCalls   Selected     Forced   Filtered  RootSelec   RootForc   RootFilt 
  hybrid           :       0.24       0.00      10873        136      67991          0     402223        283          0         33
Pricers            :   ExecTime  SetupTime      Calls       Vars
  problem variables:       0.00          -          0          0
Branching Rules    :   ExecTime  SetupTime   BranchLP  BranchExt   BranchPS    Cutoffs    DomReds       Cuts      Conss   Children
  allfullstrong    :       0.00       0.00          0          0          0          0          0          0          0          0
  cloud            :       0.00       0.00          0          0          0          0          0          0          0          0
  distribution     :       0.00       0.00          0          0          0          0          0          0          0          0
  fullstrong       :       0.00       0.00          0          0          0          0          0          0          0          0
  inference        :       0.00       0.00          0          0          0          0          0          0          0          0
  leastinf         :       0.00       0.00          0          0          0          0          0          0          0          0
  lookahead        :       0.00       0.00          0          0          0          0          0          0          0          0
  mostinf          :       0.00       0.00          0          0          0          0          0          0          0          0
  multaggr         :       0.00       0.00          0          0          0          0          0          0          0          0
  nodereopt        :       0.00       0.00          0          0          0          0          0          0          0          0
  pscost           :       0.00       0.00          0          0          0          0          0          0          0          0
  random           :       0.00       0.00          0          0          0          0          0          0          0          0
  relpscost        :      59.92       0.00      60425          0          0          0       8896          0       3010     116784
  vanillafullstrong:       0.00       0.00          0          0          0          0          0          0          0          0
Primal Heuristics  :   ExecTime  SetupTime      Calls      Found       Best
  LP solutions     :       0.00          -          -          5          5
  relax solutions  :       0.00          -          -          0          0
  pseudo solutions :       0.00          -          -          0          0
  strong branching :       0.02          -          -          0          0
  actconsdiving    :       0.00       0.00          0          0          0
  adaptivediving   :       3.08       0.00         83          0          0
  alns             :       1.98       0.00         24          4          4
  bound            :       0.00       0.00          0          0          0
  clique           :       0.00       0.00          1          0          0
  coefdiving       :       0.00       0.00          0          0          0
  completesol      :       0.00       0.00          0          0          0
  conflictdiving   :       7.41       0.00        303          0          0
  crossover        :       0.09       0.00          3          1          1
  dins             :       0.00       0.00          0          0          0
  distributiondivin:      19.34       0.00        303          0          0
  dps              :       0.00       0.00          0          0          0
  dualval          :       0.00       0.00          0          0          0
  farkasdiving     :       0.01       0.00          0          0          0
  feaspump         :       0.02       0.00          0          0          0
  fixandinfer      :       0.00       0.00          0          0          0
  fracdiving       :      10.09       0.00        303          0          0
  gins             :       0.04       0.00          0          0          0
  guideddiving     :      10.78       0.00        304          2          2
  indicator        :       0.09       0.00          0          0          0
  indicatordiving  :       0.00       0.00          0          0          0
  intdiving        :       0.00       0.00          0          0          0
  intshifting      :       0.07       0.00         14          0          0
  linesearchdiving :      10.86       0.00        303          0          0
  localbranching   :       0.00       0.00          0          0          0
  locks            :       0.01       0.00          1          0          0
  lpface           :       0.08       0.00          0          0          0
  mpec             :       1.22       0.00          1          0          0
  multistart       :       0.00       0.00          0          0          0
  mutation         :       0.00       0.00          0          0          0
  nlpdiving        :       3.86       0.00          8          0          0
  objpscostdiving  :       8.61       0.00         22          4          0
  octane           :       0.00       0.00          0          0          0
  ofins            :       0.08       0.00          0          0          0
  oneopt           :       0.04       0.00         20          0          0
  padm             :       0.00       0.00          0          0          0
  proximity        :       0.00       0.00          0          0          0
  pscostdiving     :      11.34       0.00        303          1          1
  randrounding     :       0.51       0.00       4662          0          0
  rens             :       0.00       0.00          0          0          0
  reoptsols        :       0.00       0.00          0          0          0
  repair           :       0.00       0.00          0          0          0
  rins             :       2.41       0.00          7          0          0
  rootsoldiving    :       4.09       0.00         12          0          0
  rounding         :       0.62       0.00       3694          0          0
  shiftandpropagate:       0.00       0.00          0          0          0
  shifting         :      17.53       0.00       8066         10          6
  simplerounding   :       0.07       0.00          0          0          0
  subnlp           :      60.52       0.00          0          0          0
  trivial          :       0.00       0.00          2          2          2
  trivialnegation  :       0.00       0.00          0          0          0
  trustregion      :       0.00       0.00          0          0          0
  trysol           :       0.13       0.00          0          0          0
  twoopt           :       0.00       0.00          0          0          0
  undercover       :       1.05       0.00          1          1          1
  vbounds          :       0.00       0.00          0          0          0
  veclendiving     :       6.28       0.00        303          0          0
  zeroobj          :       0.00       0.00          0          0          0
  zirounding       :       0.30       0.00       1000          0          0
  other solutions  :          -          -          -          0          -
Diving (single)    :      Calls      Nodes   LP Iters Backtracks  Conflicts   MinDepth   MaxDepth   AvgDepth  RoundSols  NLeafSols  MinSolDpt  MaxSolDpt  AvgSolDpt
  actconsdiving    :          0          -          -          -          -          -          -          -          -          -          -          -          -
  coefdiving       :          0          -          -          -          -          -          -          -          -          -          -          -          -
  conflictdiving   :        303       5584      56198        329       4691         23         46       32.0          0          -          -          -          -
  distributiondivin:        303       3699     118853        506       3889         20         37       25.2          0          -          -          -          -
  farkasdiving     :          0          -          -          -          -          -          -          -          -          -          -          -          -
  fracdiving       :        303      30731      88809        195       1294         27        232      115.5          0          -          -          -          -
  guideddiving     :        304      29272      90312        187       1706         27        214      110.2          0          2         63         90       76.5
  indicatordiving  :          0          -          -          -          -          -          -          -          -          -          -          -          -
  linesearchdiving :        303       7415      94164        405       5496         23         54       37.7          0          -          -          -          -
  pscostdiving     :        303       5047     101659        312       4517         22         43       30.5          0          1         41         41       41.0
  veclendiving     :        303       5853      40333        313       5371         21         42       32.8          0          -          -          -          -
Diving (adaptive)  :      Calls      Nodes   LP Iters Backtracks  Conflicts   MinDepth   MaxDepth   AvgDepth  RoundSols  NLeafSols  MinSolDpt  MaxSolDpt  AvgSolDpt
  actconsdiving    :         16        201       6508         38        249         22         34       24.6          0          -          -          -          -
  coefdiving       :         24        449       4546         25        470         27         47       31.5          0          -          -          -          -
  conflictdiving   :          0          -          -          -          -          -          -          -          -          -          -          -          -
  distributiondivin:          0          -          -          -          -          -          -          -          -          -          -          -          -
  farkasdiving     :          0          -          -          -          -          -          -          -          -          -          -          -          -
  fracdiving       :          5        604        971          4         31        102        157      136.0          0          -          -          -          -
  guideddiving     :          8        567       2989         12         96         30        134       84.6          0          -          -          -          -
  indicatordiving  :          0          -          -          -          -          -          -          -          -          -          -          -          -
  linesearchdiving :         11        279       2456         12        154         34         49       39.6          0          -          -          -          -
  pscostdiving     :         10        172       3228         10        115         24         37       30.8          0          -          -          -          -
  veclendiving     :          9        157       1331          9        171         26         34       31.4          0          -          -          -          -
Neighborhoods      :      Calls  SetupTime  SolveTime SolveNodes       Sols       Best       Exp3  EpsGreedy        UCB TgtFixRate  Opt  Inf Node Stal  Sol  Usr Othr Actv
  rens             :          2       0.05       0.00          0          0          0    0.00000   -1.00000    0.55075      0.550    0    2    0    0    0    0    0    1
  rins             :          2       0.03       0.00          0          0          0    0.00000   -1.00000    0.30075      0.700    0    1    0    0    0    0    1    1
  mutation         :          4       0.11       0.22         75          2          2    0.00000   -1.00000    0.54843      0.522    1    2    0    1    0    0    0    1
  localbranching   :          2       0.06       0.01          1          0          0    0.00000   -1.00000    0.54947      0.550    0    2    0    0    0    0    0    1
  crossover        :          2       0.05       0.01          1          0          0    0.00000   -1.00000    0.54947      0.550    0    2    0    0    0    0    0    1
  proximity        :          5       0.19       0.57        131          1          1    0.00000   -1.00000    0.51027      0.641    1    2    0    2    0    0    0    1
  zeroobjective    :          5       0.15       0.29        134          1          1    0.00000   -1.00000    0.50924      0.641    1    2    0    2    0    0    0    1
  dins             :          2       0.01       0.00          0          0          0    0.00000   -1.00000    0.30075      0.700    0    1    0    0    0    0    1    1
  trustregion      :          0       0.00       0.00          0          0          0    0.00000   -1.00000    1.00000      0.900    0    0    0    0    0    0    0    0
Expressions        :   #IntEval  IntEvalTi   #RevProp  RevPropTi    DomReds    Cutoffs  #Estimate  EstimTime  Branching  #Simplify SimplifyTi Simplified
  pow              :          0       0.00          0       0.00          0          0          0       0.00          0          0       0.00          0
  prod             :       3540       0.01          0       0.00          0          0          0       0.00          0       2655       0.00          0
  sum              :          8       0.00          2       0.00          0          0          0       0.00          0          3       0.01          2
  var              :       3327       0.00          0       0.00          0          0          0       0.00          0       6378       0.01          0
  varidx           :          0       0.00          0       0.00          0          0          0       0.00          0          0       0.00          0
LP                 :       Time      Calls Iterations  Iter/call   Iter/sec  Time-0-It Calls-0-It    ItLimit
  primal LP        :     158.13      10891          0       0.00       0.00     158.08      10891
  dual LP          :    2663.31     143243   17116202     137.95    6426.67       6.68      19164
  lex dual LP      :       0.00          0          0       0.00          -
  barrier LP       :       0.00          0          0       0.00          -       0.00          0
  resolve instable :       0.00          0          0       0.00          -
  diving/probing LP:      68.79       5906     707949     119.87   10291.45
  strong branching :      41.96       3760     411830     109.53    9814.82          -          -        190
    (at root node) :          -         19       7235     380.79          -
  conflict analysis:       7.22       4580      45630       9.96    6319.94
NLP relaxation     :
  solve time       :       3.86 (8 calls)
  convexity        :  nonconvex (1 linear rows, 0 convex ineq., 0 nonconvex ineq., 885 nonlinear eq. or two-sided ineq.)
NLP Solvers        :  #Problems  ProblemTi    #Solves  SolveTime      #Iter  Time/Iter      #Okay #TimeLimit #IterLimit #LObjLimit #Interrupt  #NumError #EvalError  #OutOfMem #LicenseEr #OtherTerm   #GlobOpt    #LocOpt  #Feasible #LocInfeas #GlobInfea #Unbounded   #Unknown
  ipopt            :          2       3.54         11       5.14        301       0.02         11          0          0          0          0          0          0          0          0          0          0          0          0          3          0          0          8
B&B Tree           :
  number of runs   :          1
  nodes            :     111273 (58392 internal, 52881 leaves)
  feasible leaves  :          5
  infeas. leaves   :         99
  objective leaves :      52776
  nodes (total)    :     111273 (58392 internal, 52881 leaves)
  nodes left       :       5486
  max depth        :         31
  max depth (total):         31
  backtracks       :      28903 (26.0%)
  early backtracks :          0 (0.0%)
  nodes exc. ref.  :          0 (0.0%)
  delayed cutoffs  :          8
  repropagations   :       3148 (720 domain reductions, 1 cutoffs)
  avg switch length:       4.20
  switching time   :     177.96
Estim. Tree Size   :     442762
Estimation Tree    : 116785 nodes (111299 visited, 58392 internal, 52907 leaves, 5486 open), weight: 0.2365 completed 0.4702
Estimations        :      estim      value      trend resolution     smooth
  wbe              :     447500          -          -          -          -
  tree-profile     :         -1          -          -          -          -
  gap              :     298774    0.91806    0.00005         64     296910
  tree-weight      :     442763    0.23646    0.00029         64     445672
  leaf-frequency   :     320964    0.47535    0.00001         64     343936
  ssg              :     285943    0.39451   -0.00028         64     283688
  open-nodes       :     635604 5486.00000   -1.32523         64    1415824
Root Node          :
  First LP value   : -1.00000000000000e+00
  First LP Iters   :        610 (20333.33 Iter/sec)
  First LP Time    :       0.03
  Final Dual Bound : -8.79196470335386e-01
  Final Root Iters :       4571
  Root LP Estimate : -5.24415616410693e-01
Solution           :
  Solutions found  :         30 (22 improvements)
  First Solution   : +1.00000000000000e+05   (in run 1, after 0 nodes, 0.04 seconds, depth 0, found by <trivial>)
  Gap First Sol.   :   infinite
  Gap Last Sol.    :      18.22 %
  Primal Bound     : -6.04519774011300e-01   (in run 1, after 41472 nodes, 1162.64 seconds, depth 24, found by <relaxation>)
  Dual Bound       : -6.58474576271187e-01
  Gap              :       8.93 %
Integrals          :      Total       Avg%
  primal-dual      :   50121.59      13.92
  primal-ref       :          -          - (not evaluated)
  dual-ref         :          -          - (not evaluated)
